NAME : covtype.pruned_local_8.0.tour
COMMENT : Length = 0
TYPE : TOUR
DIMENSION : 54
TOUR_SECTION
12
16
17
18
19
9
23
25
27
26
24
20
14
29
4
22
11
32
31
13
41
5
51
53
54
52
50
1
21
10
28
30
8
49
48
7
40
43
45
47
46
44
42
6
39
2
35
37
38
36
34
33
3
15
-1
EOF
